NAME : traveling-santa-2018-prime-paths.30234.tour
COMMENT : Length = 30234
COMMENT : Found by LKH [Keld Helsgaun] Sun Jun 12 20:00:30 2022
TYPE : TOUR
DIMENSION : 100
TOUR_SECTION
1
68
65
91
54
19
89
67
30
3
58
31
2
46
24
44
83
74
38
86
69
76
47
42
6
43
8
70
62
37
55
84
39
95
75
88
29
97
77
56
16
94
5
13
99
50
59
10
98
40
61
34
45
87
53
28
92
66
49
35
20
27
73
23
4
72
48
52
82
33
63
21
80
14
26
11
71
64
85
96
18
100
25
93
79
41
32
51
15
57
22
78
17
9
60
81
36
12
7
90
-1
EOF
